objective value:                                  -12
t_n_8                                               1 	(obj:-1)
t_n_125                                             1 	(obj:-1)
t_n_138                                             1 	(obj:-1)
t_n_162                                             1 	(obj:-1)
t_n_181                                             1 	(obj:-1)
t_n_490                                             1 	(obj:-1)
t_n_526                                             1 	(obj:-1)
t_n_683                                             1 	(obj:-1)
t_n_819                                             1 	(obj:-1)
t_n_876                                             1 	(obj:-1)
t_n_901                                             1 	(obj:-1)
t_n_995                                             1 	(obj:-1)
